\ Equation counts
\     Total        E        G        L        N        X        C        B
\	466	466	0	0
\
\ Variable counts
\                  x        b        i      s1s      s2s       sc       si
\     Total     cont   binary  integer     sos1     sos2    scont     sint
\	70	70

\ Nonzero counts
\     Total    const       NL      DLL
\
\
Minimize
 obj: [ - 14.0 x_1 * x_8 + 23.5 x_1 * x_9 - 20.5 x_1 * x_16 + 20.0 x_1 * x_19 + 8.5 x_1 * x_20 + 1.5 x_1 * x_28 + 3.0 x_1 * x_29 - 14.0 x_1 * x_31 + 1.5 x_1 * x_33 - 9.0 x_1 * x_34 + 9.0 x_1 * x_39 - 0.5 x_1 * x_40 - 20.5 x_1 * x_45 - 7.0 x_1 * x_48 - 21.5 x_1 * x_49 + 7.5 x_1 * x_50 - 10.5 x_1 * x_58 - 21.5 x_1 * x_65 - 2.0 x_2 * x_6 - 19.0 x_2 * x_7 + 23.0 x_2 * x_9 - 16.5 x_2 * x_11 + 11.0 x_2 * x_12 - 18.0 x_2 * x_17 + 2.0 x_2 * x_23 - 14.0 x_2 * x_25 - 11.0 x_2 * x_29 - 2.5 x_2 * x_35 - 7.5 x_2 * x_39 - 18.5 x_2 * x_43 - 18.0 x_2 * x_45 + 15.0 x_2 * x_53 + 24.5 x_2 * x_56 + 6.5 x_2 * x_60 - 20.0 x_2 * x_65 - 14.5 x_3 * x_4 + 18.0 x_3 * x_10 - 18.5 x_3 * x_11 - 10.5 x_3 * x_14 + 24.5 x_3 * x_15 - 11.0 x_3 * x_28 - 11.0 x_3 * x_33 - 21.0 x_3 * x_39 - 20.0 x_3 * x_41 + 9.5 x_3 * x_44 + 9.5 x_3 * x_49 - 21.0 x_3 * x_53 - 21.5 x_3 * x_54 + 2.0 x_3 * x_56 + 2.0 x_3 * x_57 - 3.0 x_3 * x_61 + 11.0 x_3 * x_66 - 14.5 x_4 * x_3 + 16.5 x_4 * x_6 - 8.5 x_4 * x_9 - 14.5 x_4 * x_10 - 23.5 x_4 * x_12 + 21.0 x_4 * x_18 + 19.0 x_4 * x_22 + 18.0 x_4 * x_23 + 5.0 x_4 * x_25 - 1.0 x_4 * x_28 + 17.0 x_4 * x_42 + 21.5 x_4 * x_51 - 19.0 x_4 * x_53 + 8.5 x_4 * x_55 - 14.5 x_4 * x_59 - 16.0 x_4 * x_64 + 5.5 x_4 * x_68 + 13.5 x_5 * x_7 + 10.0 x_5 * x_28 - 2.5 x_5 * x_36 + 19.5 x_5 * x_41 + 20.5 x_5 * x_42 - 19.0 x_5 * x_45 - 3.0 x_5 * x_47 + 8.5 x_5 * x_53 + 11.5 x_5 * x_55 + 9.0 x_5 * x_67 - 2.0 x_6 * x_2 + 16.5 x_6 * x_4 + 3.5 x_6 * x_6 + 23.5 x_6 * x_17 - 21.0 x_6 * x_20 + 7.5 x_6 * x_21 + 15.5 x_6 * x_26 + 20.0 x_6 * x_27 - 24.0 x_6 * x_28 - 15.5 x_6 * x_32 - 9.0 x_6 * x_36 - 2.0 x_6 * x_43 + 3.5 x_6 * x_46 + 5.5 x_6 * x_47 - 18.0 x_6 * x_48 - 2.5 x_6 * x_49 + 17.0 x_6 * x_53 - 21.5 x_6 * x_58 + 16.0 x_6 * x_59 - 13.0 x_6 * x_64 - 19.0 x_7 * x_2 + 13.5 x_7 * x_5 + 13.5 x_7 * x_7 - 17.5 x_7 * x_15 + 1.5 x_7 * x_16 + 14.0 x_7 * x_17 - 8.5 x_7 * x_20 - 4.0 x_7 * x_23 + 11.5 x_7 * x_29 + 17.5 x_7 * x_32 + 23.0 x_7 * x_40 - 18.0 x_7 * x_42 + 10.0 x_7 * x_50 - 6.5 x_7 * x_58 + 12.0 x_7 * x_65 - 2.0 x_7 * x_67 - 20.0 x_7 * x_70 - 14.0 x_8 * x_1 + 6.0 x_8 * x_8 + 24.0 x_8 * x_10 - 2.0 x_8 * x_13 + 3.5 x_8 * x_14 + 13.0 x_8 * x_16 - 0.5 x_8 * x_17 + 16.5 x_8 * x_18 - 24.0 x_8 * x_26 - 24.0 x_8 * x_27 + 4.5 x_8 * x_30 + 19.5 x_8 * x_34 + 1.5 x_8 * x_36 + 13.0 x_8 * x_39 + 18.5 x_8 * x_41 - 2.0 x_8 * x_46 - 15.5 x_8 * x_56 - 12.5 x_8 * x_58 + 24.5 x_8 * x_70 + 23.5 x_9 * x_1 + 23.0 x_9 * x_2 - 8.5 x_9 * x_4 + 16.5 x_9 * x_9 + 16.0 x_9 * x_13 + 8.0 x_9 * x_14 + 17.5 x_9 * x_17 - 20.0 x_9 * x_19 - 8.0 x_9 * x_21 - 19.5 x_9 * x_24 - 21.5 x_9 * x_28 - 2.5 x_9 * x_32 + 7.5 x_9 * x_33 - 11.0 x_9 * x_36 + 23.5 x_9 * x_38 - 14.0 x_9 * x_44 - 13.0 x_9 * x_50 + 18.5 x_9 * x_52 + 8.0 x_9 * x_54 + 17.5 x_9 * x_56 + 8.0 x_9 * x_61 - 4.0 x_9 * x_63 + 18.0 x_10 * x_3 - 14.5 x_10 * x_4 + 24.0 x_10 * x_8 + 16.5 x_10 * x_11 + 3.5 x_10 * x_21 - 20.5 x_10 * x_24 + 8.5 x_10 * x_29 - 20.0 x_10 * x_34 + 14.0 x_10 * x_39 - 20.0 x_10 * x_42 + 6.0 x_10 * x_51 + 7.0 x_10 * x_54 - 2.0 x_10 * x_55 + 14.5 x_10 * x_56 - 3.0 x_10 * x_61 - 24.5 x_10 * x_62 + 19.5 x_10 * x_67 + 1.0 x_10 * x_68 + 20.0 x_10 * x_69 - 16.5 x_11 * x_2 - 18.5 x_11 * x_3 + 16.5 x_11 * x_10 + 11.5 x_11 * x_11 + 6.5 x_11 * x_15 + 11.5 x_11 * x_24 - 13.5 x_11 * x_26 + 5.5 x_11 * x_28 - 12.5 x_11 * x_30 - 4.5 x_11 * x_32 - 0.5 x_11 * x_36 + 9.5 x_11 * x_37 + 8.5 x_11 * x_44 - 16.5 x_11 * x_54 + 6.0 x_11 * x_58 - 9.0 x_11 * x_61 - 12.0 x_11 * x_63 + 17.5 x_11 * x_64 + 4.5 x_11 * x_67 + 11.0 x_12 * x_2 - 23.5 x_12 * x_4 + 15.0 x_12 * x_12 - 13.0 x_12 * x_15 - 4.0 x_12 * x_17 + 5.0 x_12 * x_21 + 16.0 x_12 * x_40 + 15.0 x_12 * x_42 - 24.5 x_12 * x_46 + 7.0 x_12 * x_48 + 24.5 x_12 * x_51 - 16.5 x_12 * x_55 - 18.5 x_12 * x_56 + 9.5 x_12 * x_57 + 9.0 x_12 * x_63 + 24.5 x_12 * x_68 - 2.0 x_13 * x_8 + 16.0 x_13 * x_9 + 6.0 x_13 * x_18 - 21.0 x_13 * x_27 + 5.5 x_13 * x_31 - 23.5 x_13 * x_32 + 16.0 x_13 * x_33 - 1.5 x_13 * x_37 - 8.5 x_13 * x_43 + 18.5 x_13 * x_50 - 15.5 x_13 * x_53 + 7.5 x_13 * x_54 - 9.5 x_13 * x_55 - 10.5 x_14 * x_3 + 3.5 x_14 * x_8 + 8.0 x_14 * x_9 + 8.0 x_14 * x_15 - 16.5 x_14 * x_17 - 24.5 x_14 * x_18 - 19.5 x_14 * x_23 - 20.0 x_14 * x_25 + 14.0 x_14 * x_28 - 4.0 x_14 * x_40 - 22.5 x_14 * x_42 + 5.5 x_14 * x_44 + 12.5 x_14 * x_46 + 12.0 x_14 * x_48 - 21.0 x_14 * x_57 + 22.5 x_14 * x_62 + 16.5 x_14 * x_70 + 24.5 x_15 * x_3 - 17.5 x_15 * x_7 + 6.5 x_15 * x_11 - 13.0 x_15 * x_12 + 8.0 x_15 * x_14 - 4.5 x_15 * x_15 - 19.5 x_15 * x_16 + 0.5 x_15 * x_24 + 17.0 x_15 * x_34 + 15.5 x_15 * x_36 + 9.0 x_15 * x_43 - 19.0 x_15 * x_46 - 24.0 x_15 * x_48 - 6.5 x_15 * x_50 - 14.0 x_15 * x_59 + 11.0 x_15 * x_63 - 20.5 x_16 * x_1 + 1.5 x_16 * x_7 + 13.0 x_16 * x_8 - 19.5 x_16 * x_15 - 17.0 x_16 * x_25 + 23.5 x_16 * x_36 + 17.0 x_16 * x_42 + 8.0 x_16 * x_55 + 14.0 x_16 * x_57 + 13.0 x_16 * x_59 - 18.0 x_16 * x_60 - 23.5 x_16 * x_63 - 9.0 x_16 * x_69 - 24.5 x_16 * x_70 - 18.0 x_17 * x_2 + 23.5 x_17 * x_6 + 14.0 x_17 * x_7 - 0.5 x_17 * x_8 + 17.5 x_17 * x_9 - 4.0 x_17 * x_12 - 16.5 x_17 * x_14 - 1.5 x_17 * x_20 - 16.0 x_17 * x_21 - 23.0 x_17 * x_28 + 18.5 x_17 * x_34 - 15.5 x_17 * x_36 + 10.0 x_17 * x_38 + 12.0 x_17 * x_39 + 4.0 x_17 * x_40 - 6.5 x_17 * x_43 - 20.0 x_17 * x_49 + 11.5 x_17 * x_60 + 0.5 x_17 * x_61 + 24.5 x_17 * x_67 + 7.0 x_17 * x_68 + 21.0 x_18 * x_4 + 16.5 x_18 * x_8 + 6.0 x_18 * x_13 - 24.5 x_18 * x_14 + 20.0 x_18 * x_20 + 3.5 x_18 * x_22 + 15.5 x_18 * x_24 - 10.5 x_18 * x_25 - 16.5 x_18 * x_28 - 24.5 x_18 * x_36 + 20.0 x_18 * x_37 + 14.5 x_18 * x_38 - 21.5 x_18 * x_42 - 1.0 x_18 * x_48 + 2.0 x_18 * x_49 - 14.0 x_18 * x_57 - 13.5 x_18 * x_58 - 8.5 x_18 * x_64 + 20.0 x_19 * x_1 - 20.0 x_19 * x_9 - 9.0 x_19 * x_20 + 23.0 x_19 * x_34 - 6.0 x_19 * x_36 - 8.0 x_19 * x_39 + 15.5 x_19 * x_40 + 0.5 x_19 * x_41 - 24.5 x_19 * x_44 + 11.5 x_19 * x_50 - 1.0 x_19 * x_54 + 4.5 x_19 * x_56 - 20.0 x_19 * x_61 + 24.0 x_19 * x_66 - 16.0 x_19 * x_70 + 8.5 x_20 * x_1 - 21.0 x_20 * x_6 - 8.5 x_20 * x_7 - 1.5 x_20 * x_17 + 20.0 x_20 * x_18 - 9.0 x_20 * x_19 - 13.5 x_20 * x_23 - 12.0 x_20 * x_29 - 0.5 x_20 * x_31 - 24.0 x_20 * x_43 + 9.5 x_20 * x_47 - 17.5 x_20 * x_51 - 16.5 x_20 * x_54 + 17.5 x_20 * x_58 + 12.5 x_20 * x_63 + 7.5 x_21 * x_6 - 8.0 x_21 * x_9 + 3.5 x_21 * x_10 + 5.0 x_21 * x_12 - 16.0 x_21 * x_17 - 2.0 x_21 * x_21 - 21.0 x_21 * x_22 + 4.0 x_21 * x_25 - 4.0 x_21 * x_26 - 22.5 x_21 * x_27 - 18.5 x_21 * x_28 + 2.0 x_21 * x_42 - 14.0 x_21 * x_43 - 18.5 x_21 * x_46 + 7.0 x_21 * x_50 - 11.5 x_21 * x_51 - 7.5 x_21 * x_52 + 24.5 x_21 * x_54 - 18.0 x_21 * x_56 - 21.0 x_21 * x_57 + 20.5 x_21 * x_59 - 5.0 x_21 * x_62 + 23.5 x_21 * x_64 + 19.5 x_21 * x_66 + 3.0 x_21 * x_67 - 14.0 x_21 * x_70 + 19.0 x_22 * x_4 + 3.5 x_22 * x_18 - 21.0 x_22 * x_21 + 8.0 x_22 * x_22 + 5.5 x_22 * x_23 + 3.0 x_22 * x_26 + 8.0 x_22 * x_27 - 8.5 x_22 * x_29 + 13.5 x_22 * x_32 + 21.5 x_22 * x_34 + 6.0 x_22 * x_37 + 22.5 x_22 * x_40 - 0.5 x_22 * x_45 + 5.5 x_22 * x_48 - 10.0 x_22 * x_56 - 5.5 x_22 * x_58 + 7.0 x_22 * x_60 + 16.0 x_22 * x_65 - 13.5 x_22 * x_66 + 17.5 x_22 * x_69 + 2.0 x_23 * x_2 + 18.0 x_23 * x_4 - 4.0 x_23 * x_7 - 19.5 x_23 * x_14 - 13.5 x_23 * x_20 + 5.5 x_23 * x_22 - 24.5 x_23 * x_27 + 8.0 x_23 * x_32 - 17.5 x_23 * x_45 - 14.0 x_23 * x_50 + 4.0 x_23 * x_52 - 9.5 x_23 * x_54 + 3.5 x_23 * x_56 + 3.5 x_23 * x_65 - 19.5 x_24 * x_9 - 20.5 x_24 * x_10 + 11.5 x_24 * x_11 + 0.5 x_24 * x_15 + 15.5 x_24 * x_18 + 16.0 x_24 * x_24 - 16.5 x_24 * x_27 + 3.5 x_24 * x_30 + 22.5 x_24 * x_31 - 15.5 x_24 * x_38 + 1.5 x_24 * x_40 - 23.0 x_24 * x_43 + 20.0 x_24 * x_50 - 4.0 x_24 * x_53 + 7.0 x_24 * x_59 - 5.0 x_24 * x_61 + 21.5 x_24 * x_63 - 3.0 x_24 * x_69 - 14.0 x_25 * x_2 + 5.0 x_25 * x_4 - 20.0 x_25 * x_14 - 17.0 x_25 * x_16 - 10.5 x_25 * x_18 + 4.0 x_25 * x_21 - 2.5 x_25 * x_32 + 20.0 x_25 * x_34 + 2.0 x_25 * x_38 - 5.5 x_25 * x_41 + 23.5 x_25 * x_51 + 21.0 x_25 * x_55 + 7.0 x_25 * x_58 - 4.0 x_25 * x_69 + 15.5 x_26 * x_6 - 24.0 x_26 * x_8 - 13.5 x_26 * x_11 - 4.0 x_26 * x_21 + 3.0 x_26 * x_22 + 12.5 x_26 * x_27 + 23.0 x_26 * x_37 + 23.0 x_26 * x_41 - 4.0 x_26 * x_46 - 10.5 x_26 * x_51 + 4.0 x_26 * x_52 - 1.0 x_26 * x_62 - 1.0 x_26 * x_65 + 2.0 x_26 * x_69 + 20.0 x_27 * x_6 - 24.0 x_27 * x_8 - 21.0 x_27 * x_13 - 22.5 x_27 * x_21 + 8.0 x_27 * x_22 - 24.5 x_27 * x_23 - 16.5 x_27 * x_24 + 12.5 x_27 * x_26 + 5.0 x_27 * x_28 - 9.5 x_27 * x_29 + 3.5 x_27 * x_47 + 22.0 x_27 * x_48 - 3.5 x_27 * x_49 - 18.0 x_27 * x_54 + 24.0 x_27 * x_60 - 6.0 x_27 * x_69 + 1.5 x_28 * x_1 - 11.0 x_28 * x_3 - 1.0 x_28 * x_4 + 10.0 x_28 * x_5 - 24.0 x_28 * x_6 - 21.5 x_28 * x_9 + 5.5 x_28 * x_11 + 14.0 x_28 * x_14 - 23.0 x_28 * x_17 - 16.5 x_28 * x_18 - 18.5 x_28 * x_21 + 5.0 x_28 * x_27 - 24.5 x_28 * x_34 + 7.0 x_28 * x_37 - 7.0 x_28 * x_41 - 5.0 x_28 * x_45 - 24.5 x_28 * x_49 - 8.5 x_28 * x_57 + 16.5 x_28 * x_58 + 15.0 x_28 * x_64 + 24.5 x_28 * x_65 - 17.0 x_28 * x_69 + 3.0 x_29 * x_1 - 11.0 x_29 * x_2 + 11.5 x_29 * x_7 + 8.5 x_29 * x_10 - 12.0 x_29 * x_20 - 8.5 x_29 * x_22 - 9.5 x_29 * x_27 + 4.0 x_29 * x_43 + 8.5 x_29 * x_47 - 20.5 x_29 * x_50 - 17.5 x_29 * x_51 + 1.0 x_29 * x_53 + 12.0 x_29 * x_56 - 15.0 x_29 * x_59 + 12.0 x_29 * x_62 - 5.5 x_29 * x_64 + 4.5 x_30 * x_8 - 12.5 x_30 * x_11 + 3.5 x_30 * x_24 - 19.0 x_30 * x_30 - 21.0 x_30 * x_31 - 3.0 x_30 * x_37 - 20.0 x_30 * x_48 - 10.5 x_30 * x_49 + 19.5 x_30 * x_51 - 11.0 x_30 * x_55 - 9.0 x_30 * x_59 + 4.5 x_30 * x_68 + 16.0 x_30 * x_70 - 14.0 x_31 * x_1 + 5.5 x_31 * x_13 - 0.5 x_31 * x_20 + 22.5 x_31 * x_24 - 21.0 x_31 * x_30 - 11.0 x_31 * x_31 - 14.5 x_31 * x_34 - 12.0 x_31 * x_35 - 2.0 x_31 * x_40 - 14.0 x_31 * x_49 + 4.5 x_31 * x_50 - 19.0 x_31 * x_54 - 9.5 x_31 * x_58 - 10.5 x_31 * x_67 - 13.0 x_31 * x_68 - 13.0 x_31 * x_69 - 15.5 x_32 * x_6 + 17.5 x_32 * x_7 - 2.5 x_32 * x_9 - 4.5 x_32 * x_11 - 23.5 x_32 * x_13 + 13.5 x_32 * x_22 + 8.0 x_32 * x_23 - 2.5 x_32 * x_25 - 4.5 x_32 * x_33 + 24.5 x_32 * x_34 - 15.0 x_32 * x_42 + 11.0 x_32 * x_44 - 3.0 x_32 * x_46 + 24.5 x_32 * x_48 - 4.5 x_32 * x_51 - 4.0 x_32 * x_54 - 15.5 x_32 * x_56 - 4.0 x_32 * x_59 + 3.0 x_32 * x_62 + 7.5 x_32 * x_63 + 3.5 x_32 * x_66 + 1.5 x_33 * x_1 - 11.0 x_33 * x_3 + 7.5 x_33 * x_9 + 16.0 x_33 * x_13 - 4.5 x_33 * x_32 + 16.5 x_33 * x_33 + 10.5 x_33 * x_41 + 18.5 x_33 * x_42 - 21.5 x_33 * x_43 - 10.0 x_33 * x_47 + 5.5 x_33 * x_49 - 8.5 x_33 * x_50 + 3.5 x_33 * x_57 + 21.0 x_33 * x_65 - 22.0 x_33 * x_68 + 8.5 x_33 * x_70 - 9.0 x_34 * x_1 + 19.5 x_34 * x_8 - 20.0 x_34 * x_10 + 17.0 x_34 * x_15 + 18.5 x_34 * x_17 + 23.0 x_34 * x_19 + 21.5 x_34 * x_22 + 20.0 x_34 * x_25 - 24.5 x_34 * x_28 - 14.5 x_34 * x_31 + 24.5 x_34 * x_32 + 17.0 x_34 * x_34 + 21.5 x_34 * x_35 + 21.0 x_34 * x_40 - 18.5 x_34 * x_41 + 13.0 x_34 * x_44 - 4.5 x_34 * x_49 - 16.0 x_34 * x_54 - 5.5 x_34 * x_57 - 13.5 x_34 * x_58 - 5.5 x_34 * x_65 + 6.5 x_34 * x_66 + 5.5 x_34 * x_67 - 21.0 x_34 * x_69 - 2.5 x_35 * x_2 - 12.0 x_35 * x_31 + 21.5 x_35 * x_34 - 7.0 x_35 * x_37 + 13.5 x_35 * x_38 - 2.0 x_35 * x_40 - 9.5 x_35 * x_51 + 12.5 x_35 * x_53 - 16.5 x_35 * x_62 - 4.5 x_35 * x_67 - 4.5 x_35 * x_68 - 2.5 x_36 * x_5 - 9.0 x_36 * x_6 + 1.5 x_36 * x_8 - 11.0 x_36 * x_9 - 0.5 x_36 * x_11 + 15.5 x_36 * x_15 + 23.5 x_36 * x_16 - 15.5 x_36 * x_17 - 24.5 x_36 * x_18 - 6.0 x_36 * x_19 + 11.5 x_36 * x_36 - 16.5 x_36 * x_39 - 1.5 x_36 * x_42 + 8.0 x_36 * x_47 + 12.5 x_36 * x_53 - 13.0 x_36 * x_67 + 9.5 x_37 * x_11 - 1.5 x_37 * x_13 + 20.0 x_37 * x_18 + 6.0 x_37 * x_22 + 23.0 x_37 * x_26 + 7.0 x_37 * x_28 - 3.0 x_37 * x_30 - 7.0 x_37 * x_35 + 15.0 x_37 * x_44 + 6.5 x_37 * x_47 - 12.0 x_37 * x_50 + 13.5 x_37 * x_52 - 10.5 x_37 * x_53 + 14.5 x_37 * x_55 + 4.0 x_37 * x_56 - 1.5 x_37 * x_59 + 6.0 x_37 * x_64 - 13.0 x_37 * x_69 + 23.5 x_38 * x_9 + 10.0 x_38 * x_17 + 14.5 x_38 * x_18 - 15.5 x_38 * x_24 + 2.0 x_38 * x_25 + 13.5 x_38 * x_35 + 23.0 x_38 * x_44 - 22.0 x_38 * x_45 - 2.0 x_38 * x_52 - 20.5 x_38 * x_53 + 22.5 x_38 * x_59 + 22.0 x_38 * x_61 + 1.0 x_38 * x_70 + 9.0 x_39 * x_1 - 7.5 x_39 * x_2 - 21.0 x_39 * x_3 + 13.0 x_39 * x_8 + 14.0 x_39 * x_10 + 12.0 x_39 * x_17 - 8.0 x_39 * x_19 - 16.5 x_39 * x_36 + 21.0 x_39 * x_41 - 3.5 x_39 * x_51 - 1.0 x_39 * x_52 - 11.0 x_39 * x_57 + 20.0 x_39 * x_59 + 12.5 x_39 * x_65 + 11.5 x_39 * x_66 - 16.5 x_39 * x_69 - 0.5 x_40 * x_1 + 23.0 x_40 * x_7 + 16.0 x_40 * x_12 - 4.0 x_40 * x_14 + 4.0 x_40 * x_17 + 15.5 x_40 * x_19 + 22.5 x_40 * x_22 + 1.5 x_40 * x_24 - 2.0 x_40 * x_31 + 21.0 x_40 * x_34 - 2.0 x_40 * x_35 - 13.5 x_40 * x_41 - 20.0 x_40 * x_43 - 15.0 x_40 * x_44 + 10.5 x_40 * x_45 - 2.0 x_40 * x_52 + 16.5 x_40 * x_53 - 2.0 x_40 * x_58 - 19.0 x_40 * x_60 + 4.0 x_40 * x_64 + 14.0 x_40 * x_68 - 20.0 x_41 * x_3 + 19.5 x_41 * x_5 + 18.5 x_41 * x_8 + 0.5 x_41 * x_19 - 5.5 x_41 * x_25 + 23.0 x_41 * x_26 - 7.0 x_41 * x_28 + 10.5 x_41 * x_33 - 18.5 x_41 * x_34 + 21.0 x_41 * x_39 - 13.5 x_41 * x_40 - 4.0 x_41 * x_42 + 15.5 x_41 * x_47 - 13.5 x_41 * x_53 - 2.5 x_41 * x_65 - 4.0 x_41 * x_67 + 15.0 x_41 * x_70 + 17.0 x_42 * x_4 + 20.5 x_42 * x_5 - 18.0 x_42 * x_7 - 20.0 x_42 * x_10 + 15.0 x_42 * x_12 - 22.5 x_42 * x_14 + 17.0 x_42 * x_16 - 21.5 x_42 * x_18 + 2.0 x_42 * x_21 - 15.0 x_42 * x_32 + 18.5 x_42 * x_33 - 1.5 x_42 * x_36 - 4.0 x_42 * x_41 + 13.5 x_42 * x_48 + 22.0 x_42 * x_49 - 0.5 x_42 * x_51 + 17.0 x_42 * x_53 - 4.5 x_42 * x_58 - 15.5 x_42 * x_62 - 5.5 x_42 * x_69 - 18.5 x_43 * x_2 - 2.0 x_43 * x_6 - 8.5 x_43 * x_13 + 9.0 x_43 * x_15 - 6.5 x_43 * x_17 - 24.0 x_43 * x_20 - 14.0 x_43 * x_21 - 23.0 x_43 * x_24 + 4.0 x_43 * x_29 - 21.5 x_43 * x_33 - 20.0 x_43 * x_40 + 23.5 x_43 * x_44 - 3.5 x_43 * x_49 + 4.0 x_43 * x_51 + 6.0 x_43 * x_53 - 2.0 x_43 * x_55 + 20.5 x_43 * x_58 + 19.0 x_43 * x_59 - 2.5 x_43 * x_60 + 7.5 x_43 * x_69 + 9.5 x_44 * x_3 - 14.0 x_44 * x_9 + 8.5 x_44 * x_11 + 5.5 x_44 * x_14 - 24.5 x_44 * x_19 + 11.0 x_44 * x_32 + 13.0 x_44 * x_34 + 15.0 x_44 * x_37 + 23.0 x_44 * x_38 - 15.0 x_44 * x_40 + 23.5 x_44 * x_43 + 15.5 x_44 * x_50 - 8.0 x_44 * x_58 - 8.0 x_44 * x_59 + 0.5 x_44 * x_63 + 23.0 x_44 * x_66 - 20.5 x_45 * x_1 - 18.0 x_45 * x_2 - 19.0 x_45 * x_5 - 0.5 x_45 * x_22 - 17.5 x_45 * x_23 - 5.0 x_45 * x_28 - 22.0 x_45 * x_38 + 10.5 x_45 * x_40 + 12.5 x_45 * x_46 + 23.0 x_45 * x_47 + 11.5 x_45 * x_51 + 19.5 x_45 * x_52 - 2.5 x_45 * x_58 - 0.5 x_45 * x_59 + 20.0 x_45 * x_61 + 9.5 x_45 * x_65 - 11.5 x_45 * x_69 + 7.0 x_45 * x_70 + 3.5 x_46 * x_6 - 2.0 x_46 * x_8 - 24.5 x_46 * x_12 + 12.5 x_46 * x_14 - 19.0 x_46 * x_15 - 18.5 x_46 * x_21 - 4.0 x_46 * x_26 - 3.0 x_46 * x_32 + 12.5 x_46 * x_45 - 2.5 x_46 * x_46 + 9.5 x_46 * x_49 + 24.5 x_46 * x_53 + 12.0 x_46 * x_62 - 23.5 x_46 * x_63 - 3.0 x_47 * x_5 + 5.5 x_47 * x_6 + 9.5 x_47 * x_20 + 3.5 x_47 * x_27 + 8.5 x_47 * x_29 - 10.0 x_47 * x_33 + 8.0 x_47 * x_36 + 6.5 x_47 * x_37 + 15.5 x_47 * x_41 + 23.0 x_47 * x_45 + 23.0 x_47 * x_52 + 13.5 x_47 * x_58 - 11.0 x_47 * x_62 - 11.0 x_47 * x_64 - 13.0 x_47 * x_65 - 0.5 x_47 * x_67 - 7.0 x_48 * x_1 - 18.0 x_48 * x_6 + 7.0 x_48 * x_12 + 12.0 x_48 * x_14 - 24.0 x_48 * x_15 - 1.0 x_48 * x_18 + 5.5 x_48 * x_22 + 22.0 x_48 * x_27 - 20.0 x_48 * x_30 + 24.5 x_48 * x_32 + 13.5 x_48 * x_42 - 6.0 x_48 * x_49 - 16.0 x_48 * x_50 + 2.0 x_48 * x_60 - 23.5 x_48 * x_61 - 0.5 x_48 * x_67 - 21.5 x_49 * x_1 + 9.5 x_49 * x_3 - 2.5 x_49 * x_6 - 20.0 x_49 * x_17 + 2.0 x_49 * x_18 - 3.5 x_49 * x_27 - 24.5 x_49 * x_28 - 10.5 x_49 * x_30 - 14.0 x_49 * x_31 + 5.5 x_49 * x_33 - 4.5 x_49 * x_34 + 22.0 x_49 * x_42 - 3.5 x_49 * x_43 + 9.5 x_49 * x_46 - 6.0 x_49 * x_48 - 21.5 x_49 * x_49 - 24.0 x_49 * x_54 - 2.5 x_49 * x_62 + 7.5 x_49 * x_68 - 6.0 x_49 * x_70 + 7.5 x_50 * x_1 + 10.0 x_50 * x_7 - 13.0 x_50 * x_9 + 18.5 x_50 * x_13 - 6.5 x_50 * x_15 + 11.5 x_50 * x_19 + 7.0 x_50 * x_21 - 14.0 x_50 * x_23 + 20.0 x_50 * x_24 - 20.5 x_50 * x_29 + 4.5 x_50 * x_31 - 8.5 x_50 * x_33 - 12.0 x_50 * x_37 + 15.5 x_50 * x_44 - 16.0 x_50 * x_48 + 19.5 x_50 * x_57 + 23.5 x_50 * x_63 + 21.5 x_51 * x_4 + 6.0 x_51 * x_10 + 24.5 x_51 * x_12 - 17.5 x_51 * x_20 - 11.5 x_51 * x_21 + 23.5 x_51 * x_25 - 10.5 x_51 * x_26 - 17.5 x_51 * x_29 + 19.5 x_51 * x_30 - 4.5 x_51 * x_32 - 9.5 x_51 * x_35 - 3.5 x_51 * x_39 - 0.5 x_51 * x_42 + 4.0 x_51 * x_43 + 11.5 x_51 * x_45 - 23.0 x_51 * x_52 - 9.5 x_51 * x_55 + 21.0 x_51 * x_62 + 5.5 x_51 * x_66 + 1.0 x_51 * x_69 + 18.5 x_52 * x_9 - 7.5 x_52 * x_21 + 4.0 x_52 * x_23 + 4.0 x_52 * x_26 + 13.5 x_52 * x_37 - 2.0 x_52 * x_38 - 1.0 x_52 * x_39 - 2.0 x_52 * x_40 + 19.5 x_52 * x_45 + 23.0 x_52 * x_47 - 23.0 x_52 * x_51 - 15.0 x_52 * x_52 + 6.0 x_52 * x_55 - 1.5 x_52 * x_56 - 2.0 x_52 * x_57 + 22.0 x_52 * x_58 - 14.5 x_52 * x_59 + 4.0 x_52 * x_61 + 11.0 x_52 * x_62 + 12.0 x_52 * x_63 - 15.0 x_52 * x_70 + 15.0 x_53 * x_2 - 21.0 x_53 * x_3 - 19.0 x_53 * x_4 + 8.5 x_53 * x_5 + 17.0 x_53 * x_6 - 15.5 x_53 * x_13 - 4.0 x_53 * x_24 + 1.0 x_53 * x_29 + 12.5 x_53 * x_35 + 12.5 x_53 * x_36 - 10.5 x_53 * x_37 - 20.5 x_53 * x_38 + 16.5 x_53 * x_40 - 13.5 x_53 * x_41 + 17.0 x_53 * x_42 + 6.0 x_53 * x_43 + 24.5 x_53 * x_46 - 23.5 x_53 * x_55 - 20.0 x_53 * x_59 - 7.0 x_53 * x_63 - 20.5 x_53 * x_66 - 20.0 x_53 * x_68 - 21.5 x_54 * x_3 + 8.0 x_54 * x_9 + 7.0 x_54 * x_10 - 16.5 x_54 * x_11 + 7.5 x_54 * x_13 - 1.0 x_54 * x_19 - 16.5 x_54 * x_20 + 24.5 x_54 * x_21 - 9.5 x_54 * x_23 - 18.0 x_54 * x_27 - 19.0 x_54 * x_31 - 4.0 x_54 * x_32 - 16.0 x_54 * x_34 - 24.0 x_54 * x_49 - 18.5 x_54 * x_55 - 10.0 x_54 * x_60 + 12.5 x_54 * x_67 + 8.5 x_55 * x_4 + 11.5 x_55 * x_5 - 2.0 x_55 * x_10 - 16.5 x_55 * x_12 - 9.5 x_55 * x_13 + 8.0 x_55 * x_16 + 21.0 x_55 * x_25 - 11.0 x_55 * x_30 + 14.5 x_55 * x_37 - 2.0 x_55 * x_43 - 9.5 x_55 * x_51 + 6.0 x_55 * x_52 - 23.5 x_55 * x_53 - 18.5 x_55 * x_54 - 19.0 x_55 * x_57 + 24.5 x_56 * x_2 + 2.0 x_56 * x_3 - 15.5 x_56 * x_8 + 17.5 x_56 * x_9 + 14.5 x_56 * x_10 - 18.5 x_56 * x_12 + 4.5 x_56 * x_19 - 18.0 x_56 * x_21 - 10.0 x_56 * x_22 + 3.5 x_56 * x_23 + 12.0 x_56 * x_29 - 15.5 x_56 * x_32 + 4.0 x_56 * x_37 - 1.5 x_56 * x_52 + 17.0 x_56 * x_59 + 3.5 x_56 * x_70 + 2.0 x_57 * x_3 + 9.5 x_57 * x_12 - 21.0 x_57 * x_14 + 14.0 x_57 * x_16 - 14.0 x_57 * x_18 - 21.0 x_57 * x_21 - 8.5 x_57 * x_28 + 3.5 x_57 * x_33 - 5.5 x_57 * x_34 - 11.0 x_57 * x_39 + 19.5 x_57 * x_50 - 2.0 x_57 * x_52 - 19.0 x_57 * x_55 + 18.0 x_57 * x_58 + 6.0 x_57 * x_62 + 3.5 x_57 * x_67 - 10.5 x_58 * x_1 - 21.5 x_58 * x_6 - 6.5 x_58 * x_7 - 12.5 x_58 * x_8 + 6.0 x_58 * x_11 - 13.5 x_58 * x_18 + 17.5 x_58 * x_20 - 5.5 x_58 * x_22 + 7.0 x_58 * x_25 + 16.5 x_58 * x_28 - 9.5 x_58 * x_31 - 13.5 x_58 * x_34 - 2.0 x_58 * x_40 - 4.5 x_58 * x_42 + 20.5 x_58 * x_43 - 8.0 x_58 * x_44 - 2.5 x_58 * x_45 + 13.5 x_58 * x_47 + 22.0 x_58 * x_52 + 18.0 x_58 * x_57 + 16.5 x_58 * x_58 + 22.5 x_58 * x_65 - 15.5 x_58 * x_66 + 23.0 x_58 * x_67 - 4.0 x_58 * x_68 - 14.5 x_59 * x_4 + 16.0 x_59 * x_6 - 14.0 x_59 * x_15 + 13.0 x_59 * x_16 + 20.5 x_59 * x_21 + 7.0 x_59 * x_24 - 15.0 x_59 * x_29 - 9.0 x_59 * x_30 - 4.0 x_59 * x_32 - 1.5 x_59 * x_37 + 22.5 x_59 * x_38 + 20.0 x_59 * x_39 + 19.0 x_59 * x_43 - 8.0 x_59 * x_44 - 0.5 x_59 * x_45 - 14.5 x_59 * x_52 - 20.0 x_59 * x_53 + 17.0 x_59 * x_56 - 20.5 x_59 * x_64 - 0.5 x_59 * x_70 + 6.5 x_60 * x_2 - 18.0 x_60 * x_16 + 11.5 x_60 * x_17 + 7.0 x_60 * x_22 + 24.0 x_60 * x_27 - 19.0 x_60 * x_40 - 2.5 x_60 * x_43 + 2.0 x_60 * x_48 - 10.0 x_60 * x_54 - 22.5 x_60 * x_61 + 14.5 x_60 * x_62 - 12.5 x_60 * x_63 - 13.5 x_60 * x_68 - 3.0 x_61 * x_3 + 8.0 x_61 * x_9 - 3.0 x_61 * x_10 - 9.0 x_61 * x_11 + 0.5 x_61 * x_17 - 20.0 x_61 * x_19 - 5.0 x_61 * x_24 + 22.0 x_61 * x_38 + 20.0 x_61 * x_45 - 23.5 x_61 * x_48 + 4.0 x_61 * x_52 - 22.5 x_61 * x_60 + 6.5 x_61 * x_61 - 3.5 x_61 * x_63 - 24.5 x_62 * x_10 + 22.5 x_62 * x_14 - 5.0 x_62 * x_21 - 1.0 x_62 * x_26 + 12.0 x_62 * x_29 + 3.0 x_62 * x_32 - 16.5 x_62 * x_35 - 15.5 x_62 * x_42 + 12.0 x_62 * x_46 - 11.0 x_62 * x_47 - 2.5 x_62 * x_49 + 21.0 x_62 * x_51 + 11.0 x_62 * x_52 + 6.0 x_62 * x_57 + 14.5 x_62 * x_60 + 17.5 x_62 * x_62 - 23.5 x_62 * x_69 - 4.0 x_63 * x_9 - 12.0 x_63 * x_11 + 9.0 x_63 * x_12 + 11.0 x_63 * x_15 - 23.5 x_63 * x_16 + 12.5 x_63 * x_20 + 21.5 x_63 * x_24 + 7.5 x_63 * x_32 + 0.5 x_63 * x_44 - 23.5 x_63 * x_46 + 23.5 x_63 * x_50 + 12.0 x_63 * x_52 - 7.0 x_63 * x_53 - 12.5 x_63 * x_60 - 3.5 x_63 * x_61 - 8.0 x_63 * x_63 + 7.5 x_63 * x_64 + 1.5 x_63 * x_65 - 0.5 x_63 * x_68 - 23.5 x_63 * x_69 - 19.0 x_63 * x_70 - 16.0 x_64 * x_4 - 13.0 x_64 * x_6 + 17.5 x_64 * x_11 - 8.5 x_64 * x_18 + 23.5 x_64 * x_21 + 15.0 x_64 * x_28 - 5.5 x_64 * x_29 + 6.0 x_64 * x_37 + 4.0 x_64 * x_40 - 11.0 x_64 * x_47 - 20.5 x_64 * x_59 + 7.5 x_64 * x_63 - 4.0 x_64 * x_64 - 21.5 x_65 * x_1 - 20.0 x_65 * x_2 + 12.0 x_65 * x_7 + 16.0 x_65 * x_22 + 3.5 x_65 * x_23 - 1.0 x_65 * x_26 + 24.5 x_65 * x_28 + 21.0 x_65 * x_33 - 5.5 x_65 * x_34 + 12.5 x_65 * x_39 - 2.5 x_65 * x_41 + 9.5 x_65 * x_45 - 13.0 x_65 * x_47 + 22.5 x_65 * x_58 + 1.5 x_65 * x_63 + 3.0 x_65 * x_68 - 12.0 x_65 * x_69 + 1.5 x_65 * x_70 + 11.0 x_66 * x_3 + 24.0 x_66 * x_19 + 19.5 x_66 * x_21 - 13.5 x_66 * x_22 + 3.5 x_66 * x_32 + 6.5 x_66 * x_34 + 11.5 x_66 * x_39 + 23.0 x_66 * x_44 + 5.5 x_66 * x_51 - 20.5 x_66 * x_53 - 15.5 x_66 * x_58 + 9.0 x_67 * x_5 - 2.0 x_67 * x_7 + 19.5 x_67 * x_10 + 4.5 x_67 * x_11 + 24.5 x_67 * x_17 + 3.0 x_67 * x_21 - 10.5 x_67 * x_31 + 5.5 x_67 * x_34 - 4.5 x_67 * x_35 - 13.0 x_67 * x_36 - 4.0 x_67 * x_41 - 0.5 x_67 * x_47 - 0.5 x_67 * x_48 + 12.5 x_67 * x_54 + 3.5 x_67 * x_57 + 23.0 x_67 * x_58 - 22.0 x_67 * x_67 + 5.5 x_68 * x_4 + 1.0 x_68 * x_10 + 24.5 x_68 * x_12 + 7.0 x_68 * x_17 + 4.5 x_68 * x_30 - 13.0 x_68 * x_31 - 22.0 x_68 * x_33 - 4.5 x_68 * x_35 + 14.0 x_68 * x_40 + 7.5 x_68 * x_49 - 20.0 x_68 * x_53 - 4.0 x_68 * x_58 - 13.5 x_68 * x_60 - 0.5 x_68 * x_63 + 3.0 x_68 * x_65 - 5.0 x_68 * x_68 + 20.0 x_69 * x_10 - 9.0 x_69 * x_16 + 17.5 x_69 * x_22 - 3.0 x_69 * x_24 - 4.0 x_69 * x_25 + 2.0 x_69 * x_26 - 6.0 x_69 * x_27 - 17.0 x_69 * x_28 - 13.0 x_69 * x_31 - 21.0 x_69 * x_34 - 13.0 x_69 * x_37 - 16.5 x_69 * x_39 - 5.5 x_69 * x_42 + 7.5 x_69 * x_43 - 11.5 x_69 * x_45 + 1.0 x_69 * x_51 - 23.5 x_69 * x_62 - 23.5 x_69 * x_63 - 12.0 x_69 * x_65 - 7.0 x_69 * x_70 - 20.0 x_70 * x_7 + 24.5 x_70 * x_8 + 16.5 x_70 * x_14 - 24.5 x_70 * x_16 - 16.0 x_70 * x_19 - 14.0 x_70 * x_21 + 16.0 x_70 * x_30 + 8.5 x_70 * x_33 + 1.0 x_70 * x_38 + 15.0 x_70 * x_41 + 7.0 x_70 * x_45 - 6.0 x_70 * x_49 - 15.0 x_70 * x_52 + 3.5 x_70 * x_56 - 0.5 x_70 * x_59 - 19.0 x_70 * x_63 + 1.5 x_70 * x_65 - 7.0 x_70 * x_69 ] + 0.0 x_1 + 0.0 x_2 + 0.0 x_3 + 0.0 x_4 + 0.0 x_5 - 42.0 x_6 + 0.0 x_7 + 0.0 x_8 + 0.0 x_9 + 0.0 x_10 + 0.0 x_11 + 0.0 x_12 + 0.0 x_13 + 0.0 x_14 + 0.0 x_15 + 0.0 x_16 - 11.0 x_17 + 29.0 x_18 - 12.0 x_19 + 35.0 x_20 + 0.0 x_21 + 0.0 x_22 + 0.0 x_23 + 0.0 x_24 + 0.0 x_25 + 0.0 x_26 + 0.0 x_27 + 0.0 x_28 + 0.0 x_29 + 0.0 x_30 + 0.0 x_31 + 0.0 x_32 + 0.0 x_33 + 0.0 x_34 + 0.0 x_35 + 0.0 x_36 + 0.0 x_37 + 0.0 x_38 - 13.0 x_39 + 30.0 x_40 + 0.0 x_41 + 0.0 x_42 - 46.0 x_43 + 25.0 x_44 + 0.0 x_45 + 0.0 x_46 + 0.0 x_47 + 0.0 x_48 + 0.0 x_49 + 0.0 x_50 + 0.0 x_51 + 0.0 x_52 + 0.0 x_53 - 45.0 x_54 + 0.0 x_55 + 0.0 x_56 + 0.0 x_57 + 0.0 x_58 + 0.0 x_59 + 0.0 x_60 + 0.0 x_61 - 28.0 x_62 + 0.0 x_63 + 0.0 x_64 + 4.0 x_65 + 0.0 x_66 + 0.0 x_67 + 0.0 x_68 + 0.0 x_69 + 0.0 x_70

Subject To
 e2: [  x_1 * x_20 ] = 0.0
 e3: [  x_1 * x_45 ] = 0.0
 e4: [  x_1 * x_48 ] = 0.0
 e5: [  x_1 * x_49 ] = 0.0
 e6: [  x_1 * x_58 ] = 0.0
 e7: [  x_1 * x_65 ] = 0.0
 e8: [  x_2 * x_6 ] = 0.0
 e9: [  x_2 * x_7 ] = 0.0
 e10: [  x_2 * x_11 ] = 0.0
 e11: [  x_2 * x_23 ] = 0.0
 e12: [  x_2 * x_29 ] = 0.0
 e13: [  x_2 * x_35 ] = 0.0
 e14: [  x_2 * x_43 ] = 0.0
 e15: [  x_2 * x_53 ] = 0.0
 e16: [  x_2 * x_65 ] = 0.0
 e17: [  x_3 * x_11 ] = 0.0
 e18: [  x_3 * x_14 ] = 0.0
 e19: [  x_3 * x_33 ] = 0.0
 e20: [  x_3 * x_49 ] = 0.0
 e21: [  x_3 * x_57 ] = 0.0
 e22: [  x_3 * x_61 ] = 0.0
 e23: [  x_4 * x_10 ] = 0.0
 e24: [  x_4 * x_42 ] = 0.0
 e25: [  x_4 * x_51 ] = 0.0
 e26: [  x_4 * x_53 ] = 0.0
 e27: [  x_4 * x_64 ] = 0.0
 e28: [  x_5 * x_7 ] = 0.0
 e29: [  x_5 * x_36 ] = 0.0
 e30: [  x_5 * x_41 ] = 0.0
 e31: [  x_5 * x_42 ] = 0.0
 e32: [  x_5 * x_67 ] = 0.0
 e33: [  x_6 * x_4 ] = 0.0
 e34: [  x_6 * x_6 ] = 0.0
 e35: [  x_6 * x_27 ] = 0.0
 e36: [  x_6 * x_53 ] = 0.0
 e37: [  x_7 * x_16 ] = 0.0
 e38: [  x_7 * x_17 ] = 0.0
 e39: [  x_7 * x_20 ] = 0.0
 e40: [  x_7 * x_29 ] = 0.0
 e41: [  x_7 * x_32 ] = 0.0
 e42: [  x_7 * x_40 ] = 0.0
 e43: [  x_7 * x_50 ] = 0.0
 e44: [  x_7 * x_58 ] = 0.0
 e45: [  x_7 * x_65 ] = 0.0
 e46: [  x_7 * x_70 ] = 0.0
 e47: [  x_8 * x_8 ] = 0.0
 e48: [  x_8 * x_14 ] = 0.0
 e49: [  x_8 * x_18 ] = 0.0
 e50: [  x_8 * x_27 ] = 0.0
 e51: [  x_8 * x_34 ] = 0.0
 e52: [  x_8 * x_36 ] = 0.0
 e53: [  x_8 * x_46 ] = 0.0
 e54: [  x_8 * x_56 ] = 0.0
 e55: [  x_9 * x_9 ] = 0.0
 e56: [  x_9 * x_13 ] = 0.0
 e57: [  x_9 * x_14 ] = 0.0
 e58: [  x_9 * x_17 ] = 0.0
 e59: [  x_9 * x_28 ] = 0.0
 e60: [  x_9 * x_32 ] = 0.0
 e61: [  x_9 * x_54 ] = 0.0
 e62: [  x_9 * x_56 ] = 0.0
 e63: [  x_9 * x_61 ] = 0.0
 e64: [  x_9 * x_63 ] = 0.0
 e65: [  x_10 * x_3 ] = 0.0
 e66: [  x_10 * x_8 ] = 0.0
 e67: [  x_10 * x_11 ] = 0.0
 e68: [  x_10 * x_29 ] = 0.0
 e69: [  x_10 * x_39 ] = 0.0
 e70: [  x_10 * x_51 ] = 0.0
 e71: [  x_10 * x_61 ] = 0.0
 e72: [  x_10 * x_67 ] = 0.0
 e73: [  x_10 * x_68 ] = 0.0
 e74: [  x_10 * x_69 ] = 0.0
 e75: [  x_11 * x_11 ] = 0.0
 e76: [  x_11 * x_32 ] = 0.0
 e77: [  x_11 * x_36 ] = 0.0
 e78: [  x_11 * x_37 ] = 0.0
 e79: [  x_11 * x_54 ] = 0.0
 e80: [  x_11 * x_58 ] = 0.0
 e81: [  x_11 * x_61 ] = 0.0
 e82: [  x_11 * x_64 ] = 0.0
 e83: [  x_12 * x_12 ] = 0.0
 e84: [  x_12 * x_15 ] = 0.0
 e85: [  x_12 * x_17 ] = 0.0
 e86: [  x_12 * x_42 ] = 0.0
 e87: [  x_12 * x_46 ] = 0.0
 e88: [  x_12 * x_48 ] = 0.0
 e89: [  x_12 * x_55 ] = 0.0
 e90: [  x_12 * x_63 ] = 0.0
 e91: [  x_13 * x_9 ] = 0.0
 e92: [  x_13 * x_18 ] = 0.0
 e93: [  x_13 * x_31 ] = 0.0
 e94: [  x_13 * x_33 ] = 0.0
 e95: [  x_13 * x_43 ] = 0.0
 e96: [  x_13 * x_53 ] = 0.0
 e97: [  x_14 * x_8 ] = 0.0
 e98: [  x_14 * x_9 ] = 0.0
 e99: [  x_14 * x_17 ] = 0.0
 e100: [  x_14 * x_23 ] = 0.0
 e101: [  x_14 * x_28 ] = 0.0
 e102: [  x_14 * x_44 ] = 0.0
 e103: [  x_14 * x_62 ] = 0.0
 e104: [  x_14 * x_70 ] = 0.0
 e105: [  x_15 * x_7 ] = 0.0
 e106: [  x_15 * x_14 ] = 0.0
 e107: [  x_15 * x_50 ] = 0.0
 e108: [  x_16 * x_8 ] = 0.0
 e109: [  x_16 * x_15 ] = 0.0
 e110: [  x_16 * x_36 ] = 0.0
 e111: [  x_16 * x_57 ] = 0.0
 e112: [  x_16 * x_69 ] = 0.0
 e113: [  x_16 * x_70 ] = 0.0
 e114: [  x_17 * x_7 ] = 0.0
 e115: [  x_17 * x_9 ] = 0.0
 e116: [  x_17 * x_12 ] = 0.0
 e117: [  x_17 * x_14 ] = 0.0
 e118: [  x_17 * x_20 ] = 0.0
 e119: [  x_17 * x_21 ] = 0.0
 e120: [  x_17 * x_34 ] = 0.0
 e121: [  x_17 * x_36 ] = 0.0
 e122: [  x_17 * x_38 ] = 0.0
 e123: [  x_17 * x_39 ] = 0.0
 e124: [  x_18 * x_4 ] = 0.0
 e125: [  x_18 * x_14 ] = 0.0
 e126: [  x_18 * x_20 ] = 0.0
 e127: [  x_18 * x_48 ] = 0.0
 e128: [  x_18 * x_49 ] = 0.0
 e129: [  x_19 * x_9 ] = 0.0
 e130: [  x_19 * x_36 ] = 0.0
 e131: [  x_19 * x_40 ] = 0.0
 e132: [  x_19 * x_50 ] = 0.0
 e133: [  x_19 * x_56 ] = 0.0
 e134: [  x_19 * x_66 ] = 0.0
 e135: [  x_20 * x_1 ] = 0.0
 e136: [  x_20 * x_19 ] = 0.0
 e137: [  x_20 * x_63 ] = 0.0
 e138: [  x_21 * x_10 ] = 0.0
 e139: [  x_21 * x_21 ] = 0.0
 e140: [  x_21 * x_28 ] = 0.0
 e141: [  x_21 * x_43 ] = 0.0
 e142: [  x_21 * x_51 ] = 0.0
 e143: [  x_21 * x_52 ] = 0.0
 e144: [  x_21 * x_54 ] = 0.0
 e145: [  x_21 * x_56 ] = 0.0
 e146: [  x_21 * x_64 ] = 0.0
 e147: [  x_21 * x_66 ] = 0.0
 e148: [  x_22 * x_22 ] = 0.0
 e149: [  x_22 * x_26 ] = 0.0
 e150: [  x_22 * x_29 ] = 0.0
 e151: [  x_22 * x_34 ] = 0.0
 e152: [  x_22 * x_40 ] = 0.0
 e153: [  x_22 * x_45 ] = 0.0
 e154: [  x_22 * x_56 ] = 0.0
 e155: [  x_22 * x_58 ] = 0.0
 e156: [  x_22 * x_60 ] = 0.0
 e157: [  x_22 * x_65 ] = 0.0
 e158: [  x_22 * x_66 ] = 0.0
 e159: [  x_23 * x_14 ] = 0.0
 e160: [  x_23 * x_20 ] = 0.0
 e161: [  x_23 * x_27 ] = 0.0
 e162: [  x_23 * x_45 ] = 0.0
 e163: [  x_23 * x_52 ] = 0.0
 e164: [  x_23 * x_54 ] = 0.0
 e165: [  x_24 * x_9 ] = 0.0
 e166: [  x_24 * x_15 ] = 0.0
 e167: [  x_24 * x_24 ] = 0.0
 e168: [  x_24 * x_30 ] = 0.0
 e169: [  x_24 * x_31 ] = 0.0
 e170: [  x_24 * x_38 ] = 0.0
 e171: [  x_24 * x_43 ] = 0.0
 e172: [  x_24 * x_53 ] = 0.0
 e173: [  x_24 * x_61 ] = 0.0
 e174: [  x_24 * x_69 ] = 0.0
 e175: [  x_25 * x_4 ] = 0.0
 e176: [  x_25 * x_21 ] = 0.0
 e177: [  x_25 * x_32 ] = 0.0
 e178: [  x_25 * x_38 ] = 0.0
 e179: [  x_25 * x_51 ] = 0.0
 e180: [  x_25 * x_58 ] = 0.0
 e181: [  x_26 * x_22 ] = 0.0
 e182: [  x_26 * x_37 ] = 0.0
 e183: [  x_26 * x_51 ] = 0.0
 e184: [  x_26 * x_52 ] = 0.0
 e185: [  x_26 * x_65 ] = 0.0
 e186: [  x_27 * x_6 ] = 0.0
 e187: [  x_27 * x_22 ] = 0.0
 e188: [  x_27 * x_24 ] = 0.0
 e189: [  x_27 * x_29 ] = 0.0
 e190: [  x_27 * x_47 ] = 0.0
 e191: [  x_27 * x_54 ] = 0.0
 e192: [  x_27 * x_60 ] = 0.0
 e193: [  x_28 * x_1 ] = 0.0
 e194: [  x_28 * x_5 ] = 0.0
 e195: [  x_28 * x_6 ] = 0.0
 e196: [  x_28 * x_11 ] = 0.0
 e197: [  x_28 * x_21 ] = 0.0
 e198: [  x_28 * x_27 ] = 0.0
 e199: [  x_28 * x_41 ] = 0.0
 e200: [  x_28 * x_65 ] = 0.0
 e201: [  x_29 * x_1 ] = 0.0
 e202: [  x_29 * x_2 ] = 0.0
 e203: [  x_29 * x_20 ] = 0.0
 e204: [  x_29 * x_43 ] = 0.0
 e205: [  x_29 * x_62 ] = 0.0
 e206: [  x_30 * x_11 ] = 0.0
 e207: [  x_30 * x_49 ] = 0.0
 e208: [  x_30 * x_51 ] = 0.0
 e209: [  x_30 * x_70 ] = 0.0
 e210: [  x_31 * x_20 ] = 0.0
 e211: [  x_31 * x_30 ] = 0.0
 e212: [  x_31 * x_34 ] = 0.0
 e213: [  x_31 * x_49 ] = 0.0
 e214: [  x_31 * x_50 ] = 0.0
 e215: [  x_31 * x_68 ] = 0.0
 e216: [  x_32 * x_9 ] = 0.0
 e217: [  x_32 * x_11 ] = 0.0
 e218: [  x_32 * x_13 ] = 0.0
 e219: [  x_32 * x_25 ] = 0.0
 e220: [  x_32 * x_42 ] = 0.0
 e221: [  x_32 * x_44 ] = 0.0
 e222: [  x_32 * x_48 ] = 0.0
 e223: [  x_32 * x_54 ] = 0.0
 e224: [  x_33 * x_9 ] = 0.0
 e225: [  x_33 * x_32 ] = 0.0
 e226: [  x_33 * x_42 ] = 0.0
 e227: [  x_33 * x_47 ] = 0.0
 e228: [  x_33 * x_65 ] = 0.0
 e229: [  x_33 * x_70 ] = 0.0
 e230: [  x_34 * x_8 ] = 0.0
 e231: [  x_34 * x_10 ] = 0.0
 e232: [  x_34 * x_17 ] = 0.0
 e233: [  x_34 * x_19 ] = 0.0
 e234: [  x_34 * x_25 ] = 0.0
 e235: [  x_34 * x_28 ] = 0.0
 e236: [  x_34 * x_32 ] = 0.0
 e237: [  x_34 * x_34 ] = 0.0
 e238: [  x_34 * x_40 ] = 0.0
 e239: [  x_34 * x_44 ] = 0.0
 e240: [  x_34 * x_54 ] = 0.0
 e241: [  x_34 * x_67 ] = 0.0
 e242: [  x_34 * x_69 ] = 0.0
 e243: [  x_35 * x_2 ] = 0.0
 e244: [  x_35 * x_31 ] = 0.0
 e245: [  x_35 * x_38 ] = 0.0
 e246: [  x_35 * x_51 ] = 0.0
 e247: [  x_35 * x_67 ] = 0.0
 e248: [  x_36 * x_6 ] = 0.0
 e249: [  x_36 * x_11 ] = 0.0
 e250: [  x_36 * x_15 ] = 0.0
 e251: [  x_36 * x_16 ] = 0.0
 e252: [  x_36 * x_17 ] = 0.0
 e253: [  x_36 * x_53 ] = 0.0
 e254: [  x_37 * x_11 ] = 0.0
 e255: [  x_37 * x_18 ] = 0.0
 e256: [  x_37 * x_22 ] = 0.0
 e257: [  x_37 * x_26 ] = 0.0
 e258: [  x_37 * x_28 ] = 0.0
 e259: [  x_37 * x_35 ] = 0.0
 e260: [  x_37 * x_44 ] = 0.0
 e261: [  x_37 * x_50 ] = 0.0
 e262: [  x_37 * x_55 ] = 0.0
 e263: [  x_38 * x_17 ] = 0.0
 e264: [  x_38 * x_18 ] = 0.0
 e265: [  x_38 * x_35 ] = 0.0
 e266: [  x_38 * x_44 ] = 0.0
 e267: [  x_38 * x_61 ] = 0.0
 e268: [  x_39 * x_2 ] = 0.0
 e269: [  x_39 * x_10 ] = 0.0
 e270: [  x_39 * x_19 ] = 0.0
 e271: [  x_39 * x_51 ] = 0.0
 e272: [  x_39 * x_57 ] = 0.0
 e273: [  x_39 * x_59 ] = 0.0
 e274: [  x_39 * x_65 ] = 0.0
 e275: [  x_39 * x_66 ] = 0.0
 e276: [  x_40 * x_1 ] = 0.0
 e277: [  x_40 * x_7 ] = 0.0
 e278: [  x_40 * x_14 ] = 0.0
 e279: [  x_40 * x_19 ] = 0.0
 e280: [  x_40 * x_31 ] = 0.0
 e281: [  x_40 * x_35 ] = 0.0
 e282: [  x_40 * x_43 ] = 0.0
 e283: [  x_40 * x_45 ] = 0.0
 e284: [  x_40 * x_60 ] = 0.0
 e285: [  x_41 * x_8 ] = 0.0
 e286: [  x_41 * x_26 ] = 0.0
 e287: [  x_41 * x_28 ] = 0.0
 e288: [  x_41 * x_39 ] = 0.0
 e289: [  x_41 * x_40 ] = 0.0
 e290: [  x_41 * x_42 ] = 0.0
 e291: [  x_42 * x_7 ] = 0.0
 e292: [  x_42 * x_10 ] = 0.0
 e293: [  x_42 * x_12 ] = 0.0
 e294: [  x_42 * x_16 ] = 0.0
 e295: [  x_42 * x_32 ] = 0.0
 e296: [  x_42 * x_33 ] = 0.0
 e297: [  x_42 * x_36 ] = 0.0
 e298: [  x_42 * x_51 ] = 0.0
 e299: [  x_42 * x_53 ] = 0.0
 e300: [  x_42 * x_58 ] = 0.0
 e301: [  x_43 * x_6 ] = 0.0
 e302: [  x_43 * x_24 ] = 0.0
 e303: [  x_43 * x_40 ] = 0.0
 e304: [  x_43 * x_59 ] = 0.0
 e305: [  x_44 * x_9 ] = 0.0
 e306: [  x_44 * x_14 ] = 0.0
 e307: [  x_44 * x_19 ] = 0.0
 e308: [  x_44 * x_40 ] = 0.0
 e309: [  x_44 * x_58 ] = 0.0
 e310: [  x_44 * x_66 ] = 0.0
 e311: [  x_45 * x_1 ] = 0.0
 e312: [  x_45 * x_2 ] = 0.0
 e313: [  x_45 * x_22 ] = 0.0
 e314: [  x_45 * x_46 ] = 0.0
 e315: [  x_45 * x_47 ] = 0.0
 e316: [  x_45 * x_51 ] = 0.0
 e317: [  x_45 * x_52 ] = 0.0
 e318: [  x_45 * x_61 ] = 0.0
 e319: [  x_45 * x_69 ] = 0.0
 e320: [  x_46 * x_8 ] = 0.0
 e321: [  x_46 * x_14 ] = 0.0
 e322: [  x_46 * x_21 ] = 0.0
 e323: [  x_46 * x_46 ] = 0.0
 e324: [  x_47 * x_20 ] = 0.0
 e325: [  x_47 * x_29 ] = 0.0
 e326: [  x_47 * x_52 ] = 0.0
 e327: [  x_48 * x_12 ] = 0.0
 e328: [  x_48 * x_18 ] = 0.0
 e329: [  x_48 * x_27 ] = 0.0
 e330: [  x_48 * x_32 ] = 0.0
 e331: [  x_48 * x_50 ] = 0.0
 e332: [  x_48 * x_60 ] = 0.0
 e333: [  x_49 * x_1 ] = 0.0
 e334: [  x_49 * x_3 ] = 0.0
 e335: [  x_49 * x_17 ] = 0.0
 e336: [  x_49 * x_18 ] = 0.0
 e337: [  x_49 * x_27 ] = 0.0
 e338: [  x_49 * x_33 ] = 0.0
 e339: [  x_49 * x_43 ] = 0.0
 e340: [  x_49 * x_48 ] = 0.0
 e341: [  x_49 * x_62 ] = 0.0
 e342: [  x_50 * x_7 ] = 0.0
 e343: [  x_50 * x_23 ] = 0.0
 e344: [  x_50 * x_31 ] = 0.0
 e345: [  x_50 * x_48 ] = 0.0
 e346: [  x_50 * x_57 ] = 0.0
 e347: [  x_50 * x_63 ] = 0.0
 e348: [  x_51 * x_10 ] = 0.0
 e349: [  x_51 * x_12 ] = 0.0
 e350: [  x_51 * x_20 ] = 0.0
 e351: [  x_51 * x_21 ] = 0.0
 e352: [  x_51 * x_25 ] = 0.0
 e353: [  x_51 * x_39 ] = 0.0
 e354: [  x_51 * x_55 ] = 0.0
 e355: [  x_51 * x_62 ] = 0.0
 e356: [  x_52 * x_21 ] = 0.0
 e357: [  x_52 * x_37 ] = 0.0
 e358: [  x_52 * x_45 ] = 0.0
 e359: [  x_52 * x_47 ] = 0.0
 e360: [  x_52 * x_51 ] = 0.0
 e361: [  x_52 * x_56 ] = 0.0
 e362: [  x_52 * x_58 ] = 0.0
 e363: [  x_52 * x_61 ] = 0.0
 e364: [  x_52 * x_62 ] = 0.0
 e365: [  x_53 * x_4 ] = 0.0
 e366: [  x_53 * x_5 ] = 0.0
 e367: [  x_53 * x_6 ] = 0.0
 e368: [  x_53 * x_37 ] = 0.0
 e369: [  x_53 * x_42 ] = 0.0
 e370: [  x_53 * x_43 ] = 0.0
 e371: [  x_53 * x_55 ] = 0.0
 e372: [  x_53 * x_59 ] = 0.0
 e373: [  x_53 * x_63 ] = 0.0
 e374: [  x_54 * x_10 ] = 0.0
 e375: [  x_54 * x_21 ] = 0.0
 e376: [  x_54 * x_55 ] = 0.0
 e377: [  x_55 * x_4 ] = 0.0
 e378: [  x_55 * x_12 ] = 0.0
 e379: [  x_55 * x_13 ] = 0.0
 e380: [  x_55 * x_16 ] = 0.0
 e381: [  x_55 * x_25 ] = 0.0
 e382: [  x_55 * x_43 ] = 0.0
 e383: [  x_55 * x_53 ] = 0.0
 e384: [  x_56 * x_23 ] = 0.0
 e385: [  x_56 * x_29 ] = 0.0
 e386: [  x_57 * x_16 ] = 0.0
 e387: [  x_57 * x_21 ] = 0.0
 e388: [  x_57 * x_33 ] = 0.0
 e389: [  x_57 * x_39 ] = 0.0
 e390: [  x_57 * x_50 ] = 0.0
 e391: [  x_57 * x_52 ] = 0.0
 e392: [  x_58 * x_7 ] = 0.0
 e393: [  x_58 * x_18 ] = 0.0
 e394: [  x_58 * x_20 ] = 0.0
 e395: [  x_58 * x_34 ] = 0.0
 e396: [  x_58 * x_43 ] = 0.0
 e397: [  x_58 * x_45 ] = 0.0
 e398: [  x_58 * x_47 ] = 0.0
 e399: [  x_58 * x_67 ] = 0.0
 e400: [  x_59 * x_6 ] = 0.0
 e401: [  x_59 * x_21 ] = 0.0
 e402: [  x_59 * x_30 ] = 0.0
 e403: [  x_59 * x_32 ] = 0.0
 e404: [  x_59 * x_39 ] = 0.0
 e405: [  x_59 * x_45 ] = 0.0
 e406: [  x_60 * x_22 ] = 0.0
 e407: [  x_60 * x_40 ] = 0.0
 e408: [  x_60 * x_54 ] = 0.0
 e409: [  x_60 * x_68 ] = 0.0
 e410: [  x_61 * x_3 ] = 0.0
 e411: [  x_61 * x_11 ] = 0.0
 e412: [  x_61 * x_24 ] = 0.0
 e413: [  x_62 * x_10 ] = 0.0
 e414: [  x_62 * x_26 ] = 0.0
 e415: [  x_62 * x_35 ] = 0.0
 e416: [  x_62 * x_42 ] = 0.0
 e417: [  x_62 * x_46 ] = 0.0
 e418: [  x_62 * x_49 ] = 0.0
 e419: [  x_62 * x_51 ] = 0.0
 e420: [  x_62 * x_57 ] = 0.0
 e421: [  x_63 * x_11 ] = 0.0
 e422: [  x_63 * x_12 ] = 0.0
 e423: [  x_63 * x_44 ] = 0.0
 e424: [  x_63 * x_46 ] = 0.0
 e425: [  x_63 * x_50 ] = 0.0
 e426: [  x_63 * x_52 ] = 0.0
 e427: [  x_63 * x_53 ] = 0.0
 e428: [  x_63 * x_60 ] = 0.0
 e429: [  x_63 * x_63 ] = 0.0
 e430: [  x_63 * x_64 ] = 0.0
 e431: [  x_63 * x_68 ] = 0.0
 e432: [  x_64 * x_21 ] = 0.0
 e433: [  x_64 * x_29 ] = 0.0
 e434: [  x_64 * x_63 ] = 0.0
 e435: [  x_65 * x_22 ] = 0.0
 e436: [  x_65 * x_23 ] = 0.0
 e437: [  x_65 * x_28 ] = 0.0
 e438: [  x_65 * x_41 ] = 0.0
 e439: [  x_65 * x_47 ] = 0.0
 e440: [  x_65 * x_68 ] = 0.0
 e441: [  x_65 * x_69 ] = 0.0
 e442: [  x_66 * x_32 ] = 0.0
 e443: [  x_66 * x_34 ] = 0.0
 e444: [  x_66 * x_44 ] = 0.0
 e445: [  x_67 * x_10 ] = 0.0
 e446: [  x_67 * x_11 ] = 0.0
 e447: [  x_67 * x_17 ] = 0.0
 e448: [  x_67 * x_31 ] = 0.0
 e449: [  x_67 * x_35 ] = 0.0
 e450: [  x_67 * x_54 ] = 0.0
 e451: [  x_68 * x_10 ] = 0.0
 e452: [  x_68 * x_35 ] = 0.0
 e453: [  x_68 * x_49 ] = 0.0
 e454: [  x_68 * x_58 ] = 0.0
 e455: [  x_69 * x_10 ] = 0.0
 e456: [  x_69 * x_25 ] = 0.0
 e457: [  x_69 * x_28 ] = 0.0
 e458: [  x_69 * x_37 ] = 0.0
 e459: [  x_69 * x_39 ] = 0.0
 e460: [  x_69 * x_43 ] = 0.0
 e461: [  x_69 * x_70 ] = 0.0
 e462: [  x_70 * x_19 ] = 0.0
 e463: [  x_70 * x_30 ] = 0.0
 e464: [  x_70 * x_33 ] = 0.0
 e465: [  x_70 * x_49 ] = 0.0
 e466: [  x_70 * x_59 ] = 0.0
 e467: [  x_70 * x_69 ] = 0.0

Bounds
 x_1 <= 1.0
 x_2 <= 1.0
 x_3 <= 1.0
 x_4 <= 1.0
 x_5 <= 1.0
 x_6 <= 1.0
 x_7 <= 1.0
 x_8 <= 1.0
 x_9 <= 1.0
 x_10 <= 1.0
 x_11 <= 1.0
 x_12 <= 1.0
 x_13 <= 1.0
 x_14 <= 1.0
 x_15 <= 1.0
 x_16 <= 1.0
 x_17 <= 1.0
 x_18 <= 1.0
 x_19 <= 1.0
 x_20 <= 1.0
 x_21 <= 1.0
 x_22 <= 1.0
 x_23 <= 1.0
 x_24 <= 1.0
 x_25 <= 1.0
 x_26 <= 1.0
 x_27 <= 1.0
 x_28 <= 1.0
 x_29 <= 1.0
 x_30 <= 1.0
 x_31 <= 1.0
 x_32 <= 1.0
 x_33 <= 1.0
 x_34 <= 1.0
 x_35 <= 1.0
 x_36 <= 1.0
 x_37 <= 1.0
 x_38 <= 1.0
 x_39 <= 1.0
 x_40 <= 1.0
 x_41 <= 1.0
 x_42 <= 1.0
 x_43 <= 1.0
 x_44 <= 1.0
 x_45 <= 1.0
 x_46 <= 1.0
 x_47 <= 1.0
 x_48 <= 1.0
 x_49 <= 1.0
 x_50 <= 1.0
 x_51 <= 1.0
 x_52 <= 1.0
 x_53 <= 1.0
 x_54 <= 1.0
 x_55 <= 1.0
 x_56 <= 1.0
 x_57 <= 1.0
 x_58 <= 1.0
 x_59 <= 1.0
 x_60 <= 1.0
 x_61 <= 1.0
 x_62 <= 1.0
 x_63 <= 1.0
 x_64 <= 1.0
 x_65 <= 1.0
 x_66 <= 1.0
 x_67 <= 1.0
 x_68 <= 1.0
 x_69 <= 1.0
 x_70 <= 1.0

End